p cnf 253 368
45 46 1 70 0
45 46 1 -70 0
-45 -46 1 71 0
-45 -46 1 -71 0
45 -46 -1 72 0
45 -46 -1 -72 0
-45 46 -1 73 0
-45 46 -1 -73 0
1 47 2 74 0
1 47 2 -74 0
-1 -47 2 75 0
-1 -47 2 -75 0
1 -47 -2 76 0
1 -47 -2 -76 0
-1 47 -2 77 0
-1 47 -2 -77 0
2 48 3 78 0
2 48 3 -78 0
-2 -48 3 79 0
-2 -48 3 -79 0
2 -48 -3 80 0
2 -48 -3 -80 0
-2 48 -3 81 0
-2 48 -3 -81 0
3 49 4 82 0
3 49 4 -82 0
-3 -49 4 83 0
-3 -49 4 -83 0
3 -49 -4 84 0
3 -49 -4 -84 0
-3 49 -4 85 0
-3 49 -4 -85 0
4 50 5 86 0
4 50 5 -86 0
-4 -50 5 87 0
-4 -50 5 -87 0
4 -50 -5 88 0
4 -50 -5 -88 0
-4 50 -5 89 0
-4 50 -5 -89 0
5 51 6 90 0
5 51 6 -90 0
-5 -51 6 91 0
-5 -51 6 -91 0
5 -51 -6 92 0
5 -51 -6 -92 0
-5 51 -6 93 0
-5 51 -6 -93 0
6 52 7 94 0
6 52 7 -94 0
-6 -52 7 95 0
-6 -52 7 -95 0
6 -52 -7 96 0
6 -52 -7 -96 0
-6 52 -7 97 0
-6 52 -7 -97 0
7 53 8 98 0
7 53 8 -98 0
-7 -53 8 99 0
-7 -53 8 -99 0
7 -53 -8 100 0
7 -53 -8 -100 0
-7 53 -8 101 0
-7 53 -8 -101 0
8 54 9 102 0
8 54 9 -102 0
-8 -54 9 103 0
-8 -54 9 -103 0
8 -54 -9 104 0
8 -54 -9 -104 0
-8 54 -9 105 0
-8 54 -9 -105 0
9 55 10 106 0
9 55 10 -106 0
-9 -55 10 107 0
-9 -55 10 -107 0
9 -55 -10 108 0
9 -55 -10 -108 0
-9 55 -10 109 0
-9 55 -10 -109 0
10 56 11 110 0
10 56 11 -110 0
-10 -56 11 111 0
-10 -56 11 -111 0
10 -56 -11 112 0
10 -56 -11 -112 0
-10 56 -11 113 0
-10 56 -11 -113 0
11 57 12 114 0
11 57 12 -114 0
-11 -57 12 115 0
-11 -57 12 -115 0
11 -57 -12 116 0
11 -57 -12 -116 0
-11 57 -12 117 0
-11 57 -12 -117 0
12 58 13 118 0
12 58 13 -118 0
-12 -58 13 119 0
-12 -58 13 -119 0
12 -58 -13 120 0
12 -58 -13 -120 0
-12 58 -13 121 0
-12 58 -13 -121 0
13 59 14 122 0
13 59 14 -122 0
-13 -59 14 123 0
-13 -59 14 -123 0
13 -59 -14 124 0
13 -59 -14 -124 0
-13 59 -14 125 0
-13 59 -14 -125 0
14 60 15 126 0
14 60 15 -126 0
-14 -60 15 127 0
-14 -60 15 -127 0
14 -60 -15 128 0
14 -60 -15 -128 0
-14 60 -15 129 0
-14 60 -15 -129 0
15 61 16 130 0
15 61 16 -130 0
-15 -61 16 131 0
-15 -61 16 -131 0
15 -61 -16 132 0
15 -61 -16 -132 0
-15 61 -16 133 0
-15 61 -16 -133 0
16 62 17 134 0
16 62 17 -134 0
-16 -62 17 135 0
-16 -62 17 -135 0
16 -62 -17 136 0
16 -62 -17 -136 0
-16 62 -17 137 0
-16 62 -17 -137 0
17 63 18 138 0
17 63 18 -138 0
-17 -63 18 139 0
-17 -63 18 -139 0
17 -63 -18 140 0
17 -63 -18 -140 0
-17 63 -18 141 0
-17 63 -18 -141 0
18 64 19 142 0
18 64 19 -142 0
-18 -64 19 143 0
-18 -64 19 -143 0
18 -64 -19 144 0
18 -64 -19 -144 0
-18 64 -19 145 0
-18 64 -19 -145 0
19 65 20 146 0
19 65 20 -146 0
-19 -65 20 147 0
-19 -65 20 -147 0
19 -65 -20 148 0
19 -65 -20 -148 0
-19 65 -20 149 0
-19 65 -20 -149 0
20 66 21 150 0
20 66 21 -150 0
-20 -66 21 151 0
-20 -66 21 -151 0
20 -66 -21 152 0
20 -66 -21 -152 0
-20 66 -21 153 0
-20 66 -21 -153 0
21 67 22 154 0
21 67 22 -154 0
-21 -67 22 155 0
-21 -67 22 -155 0
21 -67 -22 156 0
21 -67 -22 -156 0
-21 67 -22 157 0
-21 67 -22 -157 0
22 68 69 158 0
22 68 69 -158 0
-22 -68 69 159 0
-22 -68 69 -159 0
22 -68 -69 160 0
22 -68 -69 -160 0
-22 68 -69 161 0
-22 68 -69 -161 0
23 68 69 162 0
23 68 69 -162 0
-23 -68 69 163 0
-23 -68 69 -163 0
23 -68 -69 164 0
23 -68 -69 -164 0
-23 68 -69 165 0
-23 68 -69 -165 0
24 67 23 166 0
24 67 23 -166 0
-24 -67 23 167 0
-24 -67 23 -167 0
24 -67 -23 168 0
24 -67 -23 -168 0
-24 67 -23 169 0
-24 67 -23 -169 0
25 66 24 170 0
25 66 24 -170 0
-25 -66 24 171 0
-25 -66 24 -171 0
25 -66 -24 172 0
25 -66 -24 -172 0
-25 66 -24 173 0
-25 66 -24 -173 0
26 65 25 174 0
26 65 25 -174 0
-26 -65 25 175 0
-26 -65 25 -175 0
26 -65 -25 176 0
26 -65 -25 -176 0
-26 65 -25 177 0
-26 65 -25 -177 0
27 64 26 178 0
27 64 26 -178 0
-27 -64 26 179 0
-27 -64 26 -179 0
27 -64 -26 180 0
27 -64 -26 -180 0
-27 64 -26 181 0
-27 64 -26 -181 0
28 63 27 182 0
28 63 27 -182 0
-28 -63 27 183 0
-28 -63 27 -183 0
28 -63 -27 184 0
28 -63 -27 -184 0
-28 63 -27 185 0
-28 63 -27 -185 0
29 62 28 186 0
29 62 28 -186 0
-29 -62 28 187 0
-29 -62 28 -187 0
29 -62 -28 188 0
29 -62 -28 -188 0
-29 62 -28 189 0
-29 62 -28 -189 0
30 61 29 190 0
30 61 29 -190 0
-30 -61 29 191 0
-30 -61 29 -191 0
30 -61 -29 192 0
30 -61 -29 -192 0
-30 61 -29 193 0
-30 61 -29 -193 0
31 60 30 194 0
31 60 30 -194 0
-31 -60 30 195 0
-31 -60 30 -195 0
31 -60 -30 196 0
31 -60 -30 -196 0
-31 60 -30 197 0
-31 60 -30 -197 0
32 59 31 198 0
32 59 31 -198 0
-32 -59 31 199 0
-32 -59 31 -199 0
32 -59 -31 200 0
32 -59 -31 -200 0
-32 59 -31 201 0
-32 59 -31 -201 0
33 58 32 202 0
33 58 32 -202 0
-33 -58 32 203 0
-33 -58 32 -203 0
33 -58 -32 204 0
33 -58 -32 -204 0
-33 58 -32 205 0
-33 58 -32 -205 0
34 57 33 206 0
34 57 33 -206 0
-34 -57 33 207 0
-34 -57 33 -207 0
34 -57 -33 208 0
34 -57 -33 -208 0
-34 57 -33 209 0
-34 57 -33 -209 0
35 56 34 210 0
35 56 34 -210 0
-35 -56 34 211 0
-35 -56 34 -211 0
35 -56 -34 212 0
35 -56 -34 -212 0
-35 56 -34 213 0
-35 56 -34 -213 0
36 55 35 214 0
36 55 35 -214 0
-36 -55 35 215 0
-36 -55 35 -215 0
36 -55 -35 216 0
36 -55 -35 -216 0
-36 55 -35 217 0
-36 55 -35 -217 0
37 54 36 218 0
37 54 36 -218 0
-37 -54 36 219 0
-37 -54 36 -219 0
37 -54 -36 220 0
37 -54 -36 -220 0
-37 54 -36 221 0
-37 54 -36 -221 0
38 53 37 222 0
38 53 37 -222 0
-38 -53 37 223 0
-38 -53 37 -223 0
38 -53 -37 224 0
38 -53 -37 -224 0
-38 53 -37 225 0
-38 53 -37 -225 0
39 52 38 226 0
39 52 38 -226 0
-39 -52 38 227 0
-39 -52 38 -227 0
39 -52 -38 228 0
39 -52 -38 -228 0
-39 52 -38 229 0
-39 52 -38 -229 0
40 51 39 230 0
40 51 39 -230 0
-40 -51 39 231 0
-40 -51 39 -231 0
40 -51 -39 232 0
40 -51 -39 -232 0
-40 51 -39 233 0
-40 51 -39 -233 0
41 50 40 234 0
41 50 40 -234 0
-41 -50 40 235 0
-41 -50 40 -235 0
41 -50 -40 236 0
41 -50 -40 -236 0
-41 50 -40 237 0
-41 50 -40 -237 0
42 49 41 238 0
42 49 41 -238 0
-42 -49 41 239 0
-42 -49 41 -239 0
42 -49 -41 240 0
42 -49 -41 -240 0
-42 49 -41 241 0
-42 49 -41 -241 0
43 48 42 242 0
43 48 42 -242 0
-43 -48 42 243 0
-43 -48 42 -243 0
43 -48 -42 244 0
43 -48 -42 -244 0
-43 48 -42 245 0
-43 48 -42 -245 0
44 47 43 246 0
44 47 43 -246 0
-44 -47 43 247 0
-44 -47 43 -247 0
44 -47 -43 248 0
44 -47 -43 -248 0
-44 47 -43 249 0
-44 47 -43 -249 0
45 46 -44 250 0
45 46 -44 -250 0
-45 -46 -44 251 0
-45 -46 -44 -251 0
45 -46 44 252 0
45 -46 44 -252 0
-45 46 44 253 0
-45 46 44 -253 0
